p cnf 520 1766
c p weight 208 -1 0
c p weight -208 1 0
c p weight 210 6.12323399573676603586882014729198302312846062338790031898128063403419218957424163818359375E-17 0
c p weight -210 1 0
c p weight 211 1 0
c p weight -211 1 0
c p weight 212 -1 0
c p weight -212 1 0
c p weight 214 -1 0
c p weight -214 1 0
c p weight 217 -1 0
c p weight -217 1 0
c p weight 220 -1 0
c p weight -220 1 0
c p weight 223 -1 0
c p weight -223 1 0
c p weight 226 -1 0
c p weight -226 1 0
c p weight 229 -1 0
c p weight -229 1 0
c p weight 232 -1 0
c p weight -232 1 0
c p weight 235 -1 0
c p weight -235 1 0
c p weight 238 -1 0
c p weight -238 1 0
c p weight 241 -1 0
c p weight -241 1 0
c p weight 244 -1 0
c p weight -244 1 0
c p weight 247 -1 0
c p weight -247 1 0
c p weight 250 -1 0
c p weight -250 1 0
c p weight 253 -1 0
c p weight -253 1 0
c p weight 256 -1 0
c p weight -256 1 0
c p weight 259 -1 0
c p weight -259 1 0
c p weight 262 -1 0
c p weight -262 1 0
c p weight 265 -1 0
c p weight -265 1 0
c p weight 268 -1 0
c p weight -268 1 0
c p weight 271 -1 0
c p weight -271 1 0
c p weight 274 -1 0
c p weight -274 1 0
c p weight 277 -1 0
c p weight -277 1 0
c p weight 280 -1 0
c p weight -280 1 0
c p weight 283 -1 0
c p weight -283 1 0
c p weight 286 -1 0
c p weight -286 1 0
c p weight 289 -1 0
c p weight -289 1 0
c p weight 292 -1 0
c p weight -292 1 0
c p weight 295 -1 0
c p weight -295 1 0
c p weight 298 -1 0
c p weight -298 1 0
c p weight 301 -1 0
c p weight -301 1 0
c p weight 304 -1 0
c p weight -304 1 0
c p weight 307 -1 0
c p weight -307 1 0
c p weight 310 -1 0
c p weight -310 1 0
c p weight 313 -1 0
c p weight -313 1 0
c p weight 316 -1 0
c p weight -316 1 0
c p weight 319 -1 0
c p weight -319 1 0
c p weight 322 -1 0
c p weight -322 1 0
c p weight 325 -1 0
c p weight -325 1 0
c p weight 328 -1 0
c p weight -328 1 0
c p weight 331 -1 0
c p weight -331 1 0
c p weight 334 -1 0
c p weight -334 1 0
c p weight 337 -1 0
c p weight -337 1 0
c p weight 340 -1 0
c p weight -340 1 0
c p weight 343 -1 0
c p weight -343 1 0
c p weight 346 -1 0
c p weight -346 1 0
c p weight 349 -1 0
c p weight -349 1 0
c p weight 352 -1 0
c p weight -352 1 0
c p weight 355 -1 0
c p weight -355 1 0
c p weight 358 -1 0
c p weight -358 1 0
c p weight 361 -1 0
c p weight -361 1 0
c p weight 364 -1 0
c p weight -364 1 0
c p weight 367 -1 0
c p weight -367 1 0
c p weight 370 -1 0
c p weight -370 1 0
c p weight 373 -1 0
c p weight -373 1 0
c p weight 376 -1 0
c p weight -376 1 0
c p weight 379 -1 0
c p weight -379 1 0
c p weight 382 -1 0
c p weight -382 1 0
c p weight 385 -1 0
c p weight -385 1 0
c p weight 388 -1 0
c p weight -388 1 0
c p weight 391 -1 0
c p weight -391 1 0
c p weight 394 -1 0
c p weight -394 1 0
c p weight 397 -1 0
c p weight -397 1 0
c p weight 400 -1 0
c p weight -400 1 0
c p weight 403 -1 0
c p weight -403 1 0
c p weight 406 -1 0
c p weight -406 1 0
c p weight 409 -1 0
c p weight -409 1 0
c p weight 412 -1 0
c p weight -412 1 0
c p weight 415 -1 0
c p weight -415 1 0
c p weight 418 -1 0
c p weight -418 1 0
c p weight 421 -1 0
c p weight -421 1 0
c p weight 424 -1 0
c p weight -424 1 0
c p weight 427 -1 0
c p weight -427 1 0
c p weight 430 -1 0
c p weight -430 1 0
c p weight 433 -1 0
c p weight -433 1 0
c p weight 436 -1 0
c p weight -436 1 0
c p weight 439 -1 0
c p weight -439 1 0
c p weight 442 -1 0
c p weight -442 1 0
c p weight 445 -1 0
c p weight -445 1 0
c p weight 448 -1 0
c p weight -448 1 0
c p weight 451 -1 0
c p weight -451 1 0
c p weight 454 -1 0
c p weight -454 1 0
c p weight 457 -1 0
c p weight -457 1 0
c p weight 460 -1 0
c p weight -460 1 0
c p weight 463 -1 0
c p weight -463 1 0
c p weight 466 -1 0
c p weight -466 1 0
c p weight 469 -1 0
c p weight -469 1 0
c p weight 472 -1 0
c p weight -472 1 0
c p weight 475 -1 0
c p weight -475 1 0
c p weight 478 -1 0
c p weight -478 1 0
c p weight 481 -1 0
c p weight -481 1 0
c p weight 484 -1 0
c p weight -484 1 0
c p weight 487 -1 0
c p weight -487 1 0
c p weight 490 -1 0
c p weight -490 1 0
c p weight 493 -1 0
c p weight -493 1 0
c p weight 496 -1 0
c p weight -496 1 0
c p weight 499 -1 0
c p weight -499 1 0
c p weight 502 -1 0
c p weight -502 1 0
c p weight 505 -1 0
c p weight -505 1 0
c p weight 508 -1 0
c p weight -508 1 0
c p weight 511 -1 0
c p weight -511 1 0
c p weight 514 -1 0
c p weight -514 1 0
c p weight 517 -1 0
c p weight -517 1 0
c p weight 520 -1 0
c p weight -520 1 0
-205 0
-203 0
-201 0
-199 0
-197 0
-195 0
-193 0
-191 0
-189 0
-187 0
-185 0
-183 0
-181 0
-179 0
-177 0
-175 0
-173 0
-171 0
-169 0
-167 0
-165 0
-163 0
-161 0
-159 0
-157 0
-155 0
-153 0
-151 0
-149 0
-147 0
-145 0
-143 0
-141 0
-139 0
-137 0
-135 0
-133 0
-131 0
-129 0
-127 0
-125 0
-123 0
-121 0
-119 0
-117 0
-115 0
-113 0
-111 0
-109 0
-107 0
-105 0
-103 0
-101 0
-99 0
-97 0
-95 0
-93 0
-91 0
-89 0
-87 0
-85 0
-83 0
-81 0
-79 0
-77 0
-75 0
-73 0
-71 0
-69 0
-67 0
-65 0
-63 0
-61 0
-59 0
-57 0
-55 0
-53 0
-51 0
-49 0
-47 0
-45 0
-43 0
-41 0
-39 0
-37 0
-35 0
-33 0
-31 0
-29 0
-27 0
-25 0
-23 0
-21 0
-19 0
-17 0
-15 0
-13 0
-11 0
-9 0
-7 0
-5 0
-3 0
-1 0
207 205 -206 0
207 -205 206 0
-207 205 206 0
-207 -205 -206 0
-208 205 0
-208 206 0
208 -205 -206 0
209 -205 207 0
-209 205 207 0
-210 207 0
209 -210 -205 0
-209 -210 205 0
209 210 205 -207 0
-209 210 -205 -207 0
-211 207 0
209 -211 205 0
-209 -211 -205 0
209 211 -205 -207 0
-209 211 205 -207 0
-212 209 0
-212 207 0
-212 -205 0
212 -209 205 -207 0
213 209 -207 0
213 -209 207 0
-213 209 207 0
-213 -209 -207 0
-214 209 0
-214 207 0
214 -209 -207 0
215 209 -203 0
215 -209 203 0
-215 209 203 0
-215 -209 -203 0
216 213 -204 0
216 -213 204 0
-216 213 204 0
-216 -213 -204 0
-217 209 0
-217 204 0
-217 203 -213 0
-217 -203 213 0
217 -209 203 213 -204 0
217 -209 -203 -213 -204 0
218 215 -201 0
218 -215 201 0
-218 215 201 0
-218 -215 -201 0
219 204 -202 0
219 -204 202 0
-219 204 202 0
-219 -204 -202 0
-220 215 0
-220 202 0
-220 201 -204 0
-220 -201 204 0
220 -215 201 204 -202 0
220 -215 -201 -204 -202 0
221 218 -199 0
221 -218 199 0
-221 218 199 0
-221 -218 -199 0
222 202 -200 0
222 -202 200 0
-222 202 200 0
-222 -202 -200 0
-223 218 0
-223 200 0
-223 199 -202 0
-223 -199 202 0
223 -218 199 202 -200 0
223 -218 -199 -202 -200 0
224 221 -197 0
224 -221 197 0
-224 221 197 0
-224 -221 -197 0
225 200 -198 0
225 -200 198 0
-225 200 198 0
-225 -200 -198 0
-226 221 0
-226 198 0
-226 197 -200 0
-226 -197 200 0
226 -221 197 200 -198 0
226 -221 -197 -200 -198 0
227 224 -195 0
227 -224 195 0
-227 224 195 0
-227 -224 -195 0
228 198 -196 0
228 -198 196 0
-228 198 196 0
-228 -198 -196 0
-229 224 0
-229 196 0
-229 195 -198 0
-229 -195 198 0
229 -224 195 198 -196 0
229 -224 -195 -198 -196 0
230 227 -193 0
230 -227 193 0
-230 227 193 0
-230 -227 -193 0
231 196 -194 0
231 -196 194 0
-231 196 194 0
-231 -196 -194 0
-232 227 0
-232 194 0
-232 193 -196 0
-232 -193 196 0
232 -227 193 196 -194 0
232 -227 -193 -196 -194 0
233 230 -191 0
233 -230 191 0
-233 230 191 0
-233 -230 -191 0
234 194 -192 0
234 -194 192 0
-234 194 192 0
-234 -194 -192 0
-235 230 0
-235 192 0
-235 191 -194 0
-235 -191 194 0
235 -230 191 194 -192 0
235 -230 -191 -194 -192 0
236 233 -189 0
236 -233 189 0
-236 233 189 0
-236 -233 -189 0
237 192 -190 0
237 -192 190 0
-237 192 190 0
-237 -192 -190 0
-238 233 0
-238 190 0
-238 189 -192 0
-238 -189 192 0
238 -233 189 192 -190 0
238 -233 -189 -192 -190 0
239 236 -187 0
239 -236 187 0
-239 236 187 0
-239 -236 -187 0
240 190 -188 0
240 -190 188 0
-240 190 188 0
-240 -190 -188 0
-241 236 0
-241 188 0
-241 187 -190 0
-241 -187 190 0
241 -236 187 190 -188 0
241 -236 -187 -190 -188 0
242 239 -185 0
242 -239 185 0
-242 239 185 0
-242 -239 -185 0
243 188 -186 0
243 -188 186 0
-243 188 186 0
-243 -188 -186 0
-244 239 0
-244 186 0
-244 185 -188 0
-244 -185 188 0
244 -239 185 188 -186 0
244 -239 -185 -188 -186 0
245 242 -183 0
245 -242 183 0
-245 242 183 0
-245 -242 -183 0
246 186 -184 0
246 -186 184 0
-246 186 184 0
-246 -186 -184 0
-247 242 0
-247 184 0
-247 183 -186 0
-247 -183 186 0
247 -242 183 186 -184 0
247 -242 -183 -186 -184 0
248 245 -181 0
248 -245 181 0
-248 245 181 0
-248 -245 -181 0
249 184 -182 0
249 -184 182 0
-249 184 182 0
-249 -184 -182 0
-250 245 0
-250 182 0
-250 181 -184 0
-250 -181 184 0
250 -245 181 184 -182 0
250 -245 -181 -184 -182 0
251 248 -179 0
251 -248 179 0
-251 248 179 0
-251 -248 -179 0
252 182 -180 0
252 -182 180 0
-252 182 180 0
-252 -182 -180 0
-253 248 0
-253 180 0
-253 179 -182 0
-253 -179 182 0
253 -248 179 182 -180 0
253 -248 -179 -182 -180 0
254 251 -177 0
254 -251 177 0
-254 251 177 0
-254 -251 -177 0
255 180 -178 0
255 -180 178 0
-255 180 178 0
-255 -180 -178 0
-256 251 0
-256 178 0
-256 177 -180 0
-256 -177 180 0
256 -251 177 180 -178 0
256 -251 -177 -180 -178 0
257 254 -175 0
257 -254 175 0
-257 254 175 0
-257 -254 -175 0
258 178 -176 0
258 -178 176 0
-258 178 176 0
-258 -178 -176 0
-259 254 0
-259 176 0
-259 175 -178 0
-259 -175 178 0
259 -254 175 178 -176 0
259 -254 -175 -178 -176 0
260 257 -173 0
260 -257 173 0
-260 257 173 0
-260 -257 -173 0
261 176 -174 0
261 -176 174 0
-261 176 174 0
-261 -176 -174 0
-262 257 0
-262 174 0
-262 173 -176 0
-262 -173 176 0
262 -257 173 176 -174 0
262 -257 -173 -176 -174 0
263 260 -171 0
263 -260 171 0
-263 260 171 0
-263 -260 -171 0
264 174 -172 0
264 -174 172 0
-264 174 172 0
-264 -174 -172 0
-265 260 0
-265 172 0
-265 171 -174 0
-265 -171 174 0
265 -260 171 174 -172 0
265 -260 -171 -174 -172 0
266 263 -169 0
266 -263 169 0
-266 263 169 0
-266 -263 -169 0
267 172 -170 0
267 -172 170 0
-267 172 170 0
-267 -172 -170 0
-268 263 0
-268 170 0
-268 169 -172 0
-268 -169 172 0
268 -263 169 172 -170 0
268 -263 -169 -172 -170 0
269 266 -167 0
269 -266 167 0
-269 266 167 0
-269 -266 -167 0
270 170 -168 0
270 -170 168 0
-270 170 168 0
-270 -170 -168 0
-271 266 0
-271 168 0
-271 167 -170 0
-271 -167 170 0
271 -266 167 170 -168 0
271 -266 -167 -170 -168 0
272 269 -165 0
272 -269 165 0
-272 269 165 0
-272 -269 -165 0
273 168 -166 0
273 -168 166 0
-273 168 166 0
-273 -168 -166 0
-274 269 0
-274 166 0
-274 165 -168 0
-274 -165 168 0
274 -269 165 168 -166 0
274 -269 -165 -168 -166 0
275 272 -163 0
275 -272 163 0
-275 272 163 0
-275 -272 -163 0
276 166 -164 0
276 -166 164 0
-276 166 164 0
-276 -166 -164 0
-277 272 0
-277 164 0
-277 163 -166 0
-277 -163 166 0
277 -272 163 166 -164 0
277 -272 -163 -166 -164 0
278 275 -161 0
278 -275 161 0
-278 275 161 0
-278 -275 -161 0
279 164 -162 0
279 -164 162 0
-279 164 162 0
-279 -164 -162 0
-280 275 0
-280 162 0
-280 161 -164 0
-280 -161 164 0
280 -275 161 164 -162 0
280 -275 -161 -164 -162 0
281 278 -159 0
281 -278 159 0
-281 278 159 0
-281 -278 -159 0
282 162 -160 0
282 -162 160 0
-282 162 160 0
-282 -162 -160 0
-283 278 0
-283 160 0
-283 159 -162 0
-283 -159 162 0
283 -278 159 162 -160 0
283 -278 -159 -162 -160 0
284 281 -157 0
284 -281 157 0
-284 281 157 0
-284 -281 -157 0
285 160 -158 0
285 -160 158 0
-285 160 158 0
-285 -160 -158 0
-286 281 0
-286 158 0
-286 157 -160 0
-286 -157 160 0
286 -281 157 160 -158 0
286 -281 -157 -160 -158 0
287 284 -155 0
287 -284 155 0
-287 284 155 0
-287 -284 -155 0
288 158 -156 0
288 -158 156 0
-288 158 156 0
-288 -158 -156 0
-289 284 0
-289 156 0
-289 155 -158 0
-289 -155 158 0
289 -284 155 158 -156 0
289 -284 -155 -158 -156 0
290 287 -153 0
290 -287 153 0
-290 287 153 0
-290 -287 -153 0
291 156 -154 0
291 -156 154 0
-291 156 154 0
-291 -156 -154 0
-292 287 0
-292 154 0
-292 153 -156 0
-292 -153 156 0
292 -287 153 156 -154 0
292 -287 -153 -156 -154 0
293 290 -151 0
293 -290 151 0
-293 290 151 0
-293 -290 -151 0
294 154 -152 0
294 -154 152 0
-294 154 152 0
-294 -154 -152 0
-295 290 0
-295 152 0
-295 151 -154 0
-295 -151 154 0
295 -290 151 154 -152 0
295 -290 -151 -154 -152 0
296 293 -149 0
296 -293 149 0
-296 293 149 0
-296 -293 -149 0
297 152 -150 0
297 -152 150 0
-297 152 150 0
-297 -152 -150 0
-298 293 0
-298 150 0
-298 149 -152 0
-298 -149 152 0
298 -293 149 152 -150 0
298 -293 -149 -152 -150 0
299 296 -147 0
299 -296 147 0
-299 296 147 0
-299 -296 -147 0
300 150 -148 0
300 -150 148 0
-300 150 148 0
-300 -150 -148 0
-301 296 0
-301 148 0
-301 147 -150 0
-301 -147 150 0
301 -296 147 150 -148 0
301 -296 -147 -150 -148 0
302 299 -145 0
302 -299 145 0
-302 299 145 0
-302 -299 -145 0
303 148 -146 0
303 -148 146 0
-303 148 146 0
-303 -148 -146 0
-304 299 0
-304 146 0
-304 145 -148 0
-304 -145 148 0
304 -299 145 148 -146 0
304 -299 -145 -148 -146 0
305 302 -143 0
305 -302 143 0
-305 302 143 0
-305 -302 -143 0
306 146 -144 0
306 -146 144 0
-306 146 144 0
-306 -146 -144 0
-307 302 0
-307 144 0
-307 143 -146 0
-307 -143 146 0
307 -302 143 146 -144 0
307 -302 -143 -146 -144 0
308 305 -141 0
308 -305 141 0
-308 305 141 0
-308 -305 -141 0
309 144 -142 0
309 -144 142 0
-309 144 142 0
-309 -144 -142 0
-310 305 0
-310 142 0
-310 141 -144 0
-310 -141 144 0
310 -305 141 144 -142 0
310 -305 -141 -144 -142 0
311 308 -139 0
311 -308 139 0
-311 308 139 0
-311 -308 -139 0
312 142 -140 0
312 -142 140 0
-312 142 140 0
-312 -142 -140 0
-313 308 0
-313 140 0
-313 139 -142 0
-313 -139 142 0
313 -308 139 142 -140 0
313 -308 -139 -142 -140 0
314 311 -137 0
314 -311 137 0
-314 311 137 0
-314 -311 -137 0
315 140 -138 0
315 -140 138 0
-315 140 138 0
-315 -140 -138 0
-316 311 0
-316 138 0
-316 137 -140 0
-316 -137 140 0
316 -311 137 140 -138 0
316 -311 -137 -140 -138 0
317 314 -135 0
317 -314 135 0
-317 314 135 0
-317 -314 -135 0
318 138 -136 0
318 -138 136 0
-318 138 136 0
-318 -138 -136 0
-319 314 0
-319 136 0
-319 135 -138 0
-319 -135 138 0
319 -314 135 138 -136 0
319 -314 -135 -138 -136 0
320 317 -133 0
320 -317 133 0
-320 317 133 0
-320 -317 -133 0
321 136 -134 0
321 -136 134 0
-321 136 134 0
-321 -136 -134 0
-322 317 0
-322 134 0
-322 133 -136 0
-322 -133 136 0
322 -317 133 136 -134 0
322 -317 -133 -136 -134 0
323 320 -131 0
323 -320 131 0
-323 320 131 0
-323 -320 -131 0
324 134 -132 0
324 -134 132 0
-324 134 132 0
-324 -134 -132 0
-325 320 0
-325 132 0
-325 131 -134 0
-325 -131 134 0
325 -320 131 134 -132 0
325 -320 -131 -134 -132 0
326 323 -129 0
326 -323 129 0
-326 323 129 0
-326 -323 -129 0
327 132 -130 0
327 -132 130 0
-327 132 130 0
-327 -132 -130 0
-328 323 0
-328 130 0
-328 129 -132 0
-328 -129 132 0
328 -323 129 132 -130 0
328 -323 -129 -132 -130 0
329 326 -127 0
329 -326 127 0
-329 326 127 0
-329 -326 -127 0
330 130 -128 0
330 -130 128 0
-330 130 128 0
-330 -130 -128 0
-331 326 0
-331 128 0
-331 127 -130 0
-331 -127 130 0
331 -326 127 130 -128 0
331 -326 -127 -130 -128 0
332 329 -125 0
332 -329 125 0
-332 329 125 0
-332 -329 -125 0
333 128 -126 0
333 -128 126 0
-333 128 126 0
-333 -128 -126 0
-334 329 0
-334 126 0
-334 125 -128 0
-334 -125 128 0
334 -329 125 128 -126 0
334 -329 -125 -128 -126 0
335 332 -123 0
335 -332 123 0
-335 332 123 0
-335 -332 -123 0
336 126 -124 0
336 -126 124 0
-336 126 124 0
-336 -126 -124 0
-337 332 0
-337 124 0
-337 123 -126 0
-337 -123 126 0
337 -332 123 126 -124 0
337 -332 -123 -126 -124 0
338 335 -121 0
338 -335 121 0
-338 335 121 0
-338 -335 -121 0
339 124 -122 0
339 -124 122 0
-339 124 122 0
-339 -124 -122 0
-340 335 0
-340 122 0
-340 121 -124 0
-340 -121 124 0
340 -335 121 124 -122 0
340 -335 -121 -124 -122 0
341 338 -119 0
341 -338 119 0
-341 338 119 0
-341 -338 -119 0
342 122 -120 0
342 -122 120 0
-342 122 120 0
-342 -122 -120 0
-343 338 0
-343 120 0
-343 119 -122 0
-343 -119 122 0
343 -338 119 122 -120 0
343 -338 -119 -122 -120 0
344 341 -117 0
344 -341 117 0
-344 341 117 0
-344 -341 -117 0
345 120 -118 0
345 -120 118 0
-345 120 118 0
-345 -120 -118 0
-346 341 0
-346 118 0
-346 117 -120 0
-346 -117 120 0
346 -341 117 120 -118 0
346 -341 -117 -120 -118 0
347 344 -115 0
347 -344 115 0
-347 344 115 0
-347 -344 -115 0
348 118 -116 0
348 -118 116 0
-348 118 116 0
-348 -118 -116 0
-349 344 0
-349 116 0
-349 115 -118 0
-349 -115 118 0
349 -344 115 118 -116 0
349 -344 -115 -118 -116 0
350 347 -113 0
350 -347 113 0
-350 347 113 0
-350 -347 -113 0
351 116 -114 0
351 -116 114 0
-351 116 114 0
-351 -116 -114 0
-352 347 0
-352 114 0
-352 113 -116 0
-352 -113 116 0
352 -347 113 116 -114 0
352 -347 -113 -116 -114 0
353 350 -111 0
353 -350 111 0
-353 350 111 0
-353 -350 -111 0
354 114 -112 0
354 -114 112 0
-354 114 112 0
-354 -114 -112 0
-355 350 0
-355 112 0
-355 111 -114 0
-355 -111 114 0
355 -350 111 114 -112 0
355 -350 -111 -114 -112 0
356 353 -109 0
356 -353 109 0
-356 353 109 0
-356 -353 -109 0
357 112 -110 0
357 -112 110 0
-357 112 110 0
-357 -112 -110 0
-358 353 0
-358 110 0
-358 109 -112 0
-358 -109 112 0
358 -353 109 112 -110 0
358 -353 -109 -112 -110 0
359 356 -107 0
359 -356 107 0
-359 356 107 0
-359 -356 -107 0
360 110 -108 0
360 -110 108 0
-360 110 108 0
-360 -110 -108 0
-361 356 0
-361 108 0
-361 107 -110 0
-361 -107 110 0
361 -356 107 110 -108 0
361 -356 -107 -110 -108 0
362 359 -105 0
362 -359 105 0
-362 359 105 0
-362 -359 -105 0
363 108 -106 0
363 -108 106 0
-363 108 106 0
-363 -108 -106 0
-364 359 0
-364 106 0
-364 105 -108 0
-364 -105 108 0
364 -359 105 108 -106 0
364 -359 -105 -108 -106 0
365 362 -103 0
365 -362 103 0
-365 362 103 0
-365 -362 -103 0
366 106 -104 0
366 -106 104 0
-366 106 104 0
-366 -106 -104 0
-367 362 0
-367 104 0
-367 103 -106 0
-367 -103 106 0
367 -362 103 106 -104 0
367 -362 -103 -106 -104 0
368 365 -101 0
368 -365 101 0
-368 365 101 0
-368 -365 -101 0
369 104 -102 0
369 -104 102 0
-369 104 102 0
-369 -104 -102 0
-370 365 0
-370 102 0
-370 101 -104 0
-370 -101 104 0
370 -365 101 104 -102 0
370 -365 -101 -104 -102 0
371 368 -99 0
371 -368 99 0
-371 368 99 0
-371 -368 -99 0
372 102 -100 0
372 -102 100 0
-372 102 100 0
-372 -102 -100 0
-373 368 0
-373 100 0
-373 99 -102 0
-373 -99 102 0
373 -368 99 102 -100 0
373 -368 -99 -102 -100 0
374 371 -97 0
374 -371 97 0
-374 371 97 0
-374 -371 -97 0
375 100 -98 0
375 -100 98 0
-375 100 98 0
-375 -100 -98 0
-376 371 0
-376 98 0
-376 97 -100 0
-376 -97 100 0
376 -371 97 100 -98 0
376 -371 -97 -100 -98 0
377 374 -95 0
377 -374 95 0
-377 374 95 0
-377 -374 -95 0
378 98 -96 0
378 -98 96 0
-378 98 96 0
-378 -98 -96 0
-379 374 0
-379 96 0
-379 95 -98 0
-379 -95 98 0
379 -374 95 98 -96 0
379 -374 -95 -98 -96 0
380 377 -93 0
380 -377 93 0
-380 377 93 0
-380 -377 -93 0
381 96 -94 0
381 -96 94 0
-381 96 94 0
-381 -96 -94 0
-382 377 0
-382 94 0
-382 93 -96 0
-382 -93 96 0
382 -377 93 96 -94 0
382 -377 -93 -96 -94 0
383 380 -91 0
383 -380 91 0
-383 380 91 0
-383 -380 -91 0
384 94 -92 0
384 -94 92 0
-384 94 92 0
-384 -94 -92 0
-385 380 0
-385 92 0
-385 91 -94 0
-385 -91 94 0
385 -380 91 94 -92 0
385 -380 -91 -94 -92 0
386 383 -89 0
386 -383 89 0
-386 383 89 0
-386 -383 -89 0
387 92 -90 0
387 -92 90 0
-387 92 90 0
-387 -92 -90 0
-388 383 0
-388 90 0
-388 89 -92 0
-388 -89 92 0
388 -383 89 92 -90 0
388 -383 -89 -92 -90 0
389 386 -87 0
389 -386 87 0
-389 386 87 0
-389 -386 -87 0
390 90 -88 0
390 -90 88 0
-390 90 88 0
-390 -90 -88 0
-391 386 0
-391 88 0
-391 87 -90 0
-391 -87 90 0
391 -386 87 90 -88 0
391 -386 -87 -90 -88 0
392 389 -85 0
392 -389 85 0
-392 389 85 0
-392 -389 -85 0
393 88 -86 0
393 -88 86 0
-393 88 86 0
-393 -88 -86 0
-394 389 0
-394 86 0
-394 85 -88 0
-394 -85 88 0
394 -389 85 88 -86 0
394 -389 -85 -88 -86 0
395 392 -83 0
395 -392 83 0
-395 392 83 0
-395 -392 -83 0
396 86 -84 0
396 -86 84 0
-396 86 84 0
-396 -86 -84 0
-397 392 0
-397 84 0
-397 83 -86 0
-397 -83 86 0
397 -392 83 86 -84 0
397 -392 -83 -86 -84 0
398 395 -81 0
398 -395 81 0
-398 395 81 0
-398 -395 -81 0
399 84 -82 0
399 -84 82 0
-399 84 82 0
-399 -84 -82 0
-400 395 0
-400 82 0
-400 81 -84 0
-400 -81 84 0
400 -395 81 84 -82 0
400 -395 -81 -84 -82 0
401 398 -79 0
401 -398 79 0
-401 398 79 0
-401 -398 -79 0
402 82 -80 0
402 -82 80 0
-402 82 80 0
-402 -82 -80 0
-403 398 0
-403 80 0
-403 79 -82 0
-403 -79 82 0
403 -398 79 82 -80 0
403 -398 -79 -82 -80 0
404 401 -77 0
404 -401 77 0
-404 401 77 0
-404 -401 -77 0
405 80 -78 0
405 -80 78 0
-405 80 78 0
-405 -80 -78 0
-406 401 0
-406 78 0
-406 77 -80 0
-406 -77 80 0
406 -401 77 80 -78 0
406 -401 -77 -80 -78 0
407 404 -75 0
407 -404 75 0
-407 404 75 0
-407 -404 -75 0
408 78 -76 0
408 -78 76 0
-408 78 76 0
-408 -78 -76 0
-409 404 0
-409 76 0
-409 75 -78 0
-409 -75 78 0
409 -404 75 78 -76 0
409 -404 -75 -78 -76 0
410 407 -73 0
410 -407 73 0
-410 407 73 0
-410 -407 -73 0
411 76 -74 0
411 -76 74 0
-411 76 74 0
-411 -76 -74 0
-412 407 0
-412 74 0
-412 73 -76 0
-412 -73 76 0
412 -407 73 76 -74 0
412 -407 -73 -76 -74 0
413 410 -71 0
413 -410 71 0
-413 410 71 0
-413 -410 -71 0
414 74 -72 0
414 -74 72 0
-414 74 72 0
-414 -74 -72 0
-415 410 0
-415 72 0
-415 71 -74 0
-415 -71 74 0
415 -410 71 74 -72 0
415 -410 -71 -74 -72 0
416 413 -69 0
416 -413 69 0
-416 413 69 0
-416 -413 -69 0
417 72 -70 0
417 -72 70 0
-417 72 70 0
-417 -72 -70 0
-418 413 0
-418 70 0
-418 69 -72 0
-418 -69 72 0
418 -413 69 72 -70 0
418 -413 -69 -72 -70 0
419 416 -67 0
419 -416 67 0
-419 416 67 0
-419 -416 -67 0
420 70 -68 0
420 -70 68 0
-420 70 68 0
-420 -70 -68 0
-421 416 0
-421 68 0
-421 67 -70 0
-421 -67 70 0
421 -416 67 70 -68 0
421 -416 -67 -70 -68 0
422 419 -65 0
422 -419 65 0
-422 419 65 0
-422 -419 -65 0
423 68 -66 0
423 -68 66 0
-423 68 66 0
-423 -68 -66 0
-424 419 0
-424 66 0
-424 65 -68 0
-424 -65 68 0
424 -419 65 68 -66 0
424 -419 -65 -68 -66 0
425 422 -63 0
425 -422 63 0
-425 422 63 0
-425 -422 -63 0
426 66 -64 0
426 -66 64 0
-426 66 64 0
-426 -66 -64 0
-427 422 0
-427 64 0
-427 63 -66 0
-427 -63 66 0
427 -422 63 66 -64 0
427 -422 -63 -66 -64 0
428 425 -61 0
428 -425 61 0
-428 425 61 0
-428 -425 -61 0
429 64 -62 0
429 -64 62 0
-429 64 62 0
-429 -64 -62 0
-430 425 0
-430 62 0
-430 61 -64 0
-430 -61 64 0
430 -425 61 64 -62 0
430 -425 -61 -64 -62 0
431 428 -59 0
431 -428 59 0
-431 428 59 0
-431 -428 -59 0
432 62 -60 0
432 -62 60 0
-432 62 60 0
-432 -62 -60 0
-433 428 0
-433 60 0
-433 59 -62 0
-433 -59 62 0
433 -428 59 62 -60 0
433 -428 -59 -62 -60 0
434 431 -57 0
434 -431 57 0
-434 431 57 0
-434 -431 -57 0
435 60 -58 0
435 -60 58 0
-435 60 58 0
-435 -60 -58 0
-436 431 0
-436 58 0
-436 57 -60 0
-436 -57 60 0
436 -431 57 60 -58 0
436 -431 -57 -60 -58 0
437 434 -55 0
437 -434 55 0
-437 434 55 0
-437 -434 -55 0
438 58 -56 0
438 -58 56 0
-438 58 56 0
-438 -58 -56 0
-439 434 0
-439 56 0
-439 55 -58 0
-439 -55 58 0
439 -434 55 58 -56 0
439 -434 -55 -58 -56 0
440 437 -53 0
440 -437 53 0
-440 437 53 0
-440 -437 -53 0
441 56 -54 0
441 -56 54 0
-441 56 54 0
-441 -56 -54 0
-442 437 0
-442 54 0
-442 53 -56 0
-442 -53 56 0
442 -437 53 56 -54 0
442 -437 -53 -56 -54 0
443 440 -51 0
443 -440 51 0
-443 440 51 0
-443 -440 -51 0
444 54 -52 0
444 -54 52 0
-444 54 52 0
-444 -54 -52 0
-445 440 0
-445 52 0
-445 51 -54 0
-445 -51 54 0
445 -440 51 54 -52 0
445 -440 -51 -54 -52 0
446 443 -49 0
446 -443 49 0
-446 443 49 0
-446 -443 -49 0
447 52 -50 0
447 -52 50 0
-447 52 50 0
-447 -52 -50 0
-448 443 0
-448 50 0
-448 49 -52 0
-448 -49 52 0
448 -443 49 52 -50 0
448 -443 -49 -52 -50 0
449 446 -47 0
449 -446 47 0
-449 446 47 0
-449 -446 -47 0
450 50 -48 0
450 -50 48 0
-450 50 48 0
-450 -50 -48 0
-451 446 0
-451 48 0
-451 47 -50 0
-451 -47 50 0
451 -446 47 50 -48 0
451 -446 -47 -50 -48 0
452 449 -45 0
452 -449 45 0
-452 449 45 0
-452 -449 -45 0
453 48 -46 0
453 -48 46 0
-453 48 46 0
-453 -48 -46 0
-454 449 0
-454 46 0
-454 45 -48 0
-454 -45 48 0
454 -449 45 48 -46 0
454 -449 -45 -48 -46 0
455 452 -43 0
455 -452 43 0
-455 452 43 0
-455 -452 -43 0
456 46 -44 0
456 -46 44 0
-456 46 44 0
-456 -46 -44 0
-457 452 0
-457 44 0
-457 43 -46 0
-457 -43 46 0
457 -452 43 46 -44 0
457 -452 -43 -46 -44 0
458 455 -41 0
458 -455 41 0
-458 455 41 0
-458 -455 -41 0
459 44 -42 0
459 -44 42 0
-459 44 42 0
-459 -44 -42 0
-460 455 0
-460 42 0
-460 41 -44 0
-460 -41 44 0
460 -455 41 44 -42 0
460 -455 -41 -44 -42 0
461 458 -39 0
461 -458 39 0
-461 458 39 0
-461 -458 -39 0
462 42 -40 0
462 -42 40 0
-462 42 40 0
-462 -42 -40 0
-463 458 0
-463 40 0
-463 39 -42 0
-463 -39 42 0
463 -458 39 42 -40 0
463 -458 -39 -42 -40 0
464 461 -37 0
464 -461 37 0
-464 461 37 0
-464 -461 -37 0
465 40 -38 0
465 -40 38 0
-465 40 38 0
-465 -40 -38 0
-466 461 0
-466 38 0
-466 37 -40 0
-466 -37 40 0
466 -461 37 40 -38 0
466 -461 -37 -40 -38 0
467 464 -35 0
467 -464 35 0
-467 464 35 0
-467 -464 -35 0
468 38 -36 0
468 -38 36 0
-468 38 36 0
-468 -38 -36 0
-469 464 0
-469 36 0
-469 35 -38 0
-469 -35 38 0
469 -464 35 38 -36 0
469 -464 -35 -38 -36 0
470 467 -33 0
470 -467 33 0
-470 467 33 0
-470 -467 -33 0
471 36 -34 0
471 -36 34 0
-471 36 34 0
-471 -36 -34 0
-472 467 0
-472 34 0
-472 33 -36 0
-472 -33 36 0
472 -467 33 36 -34 0
472 -467 -33 -36 -34 0
473 470 -31 0
473 -470 31 0
-473 470 31 0
-473 -470 -31 0
474 34 -32 0
474 -34 32 0
-474 34 32 0
-474 -34 -32 0
-475 470 0
-475 32 0
-475 31 -34 0
-475 -31 34 0
475 -470 31 34 -32 0
475 -470 -31 -34 -32 0
476 473 -29 0
476 -473 29 0
-476 473 29 0
-476 -473 -29 0
477 32 -30 0
477 -32 30 0
-477 32 30 0
-477 -32 -30 0
-478 473 0
-478 30 0
-478 29 -32 0
-478 -29 32 0
478 -473 29 32 -30 0
478 -473 -29 -32 -30 0
479 476 -27 0
479 -476 27 0
-479 476 27 0
-479 -476 -27 0
480 30 -28 0
480 -30 28 0
-480 30 28 0
-480 -30 -28 0
-481 476 0
-481 28 0
-481 27 -30 0
-481 -27 30 0
481 -476 27 30 -28 0
481 -476 -27 -30 -28 0
482 479 -25 0
482 -479 25 0
-482 479 25 0
-482 -479 -25 0
483 28 -26 0
483 -28 26 0
-483 28 26 0
-483 -28 -26 0
-484 479 0
-484 26 0
-484 25 -28 0
-484 -25 28 0
484 -479 25 28 -26 0
484 -479 -25 -28 -26 0
485 482 -23 0
485 -482 23 0
-485 482 23 0
-485 -482 -23 0
486 26 -24 0
486 -26 24 0
-486 26 24 0
-486 -26 -24 0
-487 482 0
-487 24 0
-487 23 -26 0
-487 -23 26 0
487 -482 23 26 -24 0
487 -482 -23 -26 -24 0
488 485 -21 0
488 -485 21 0
-488 485 21 0
-488 -485 -21 0
489 24 -22 0
489 -24 22 0
-489 24 22 0
-489 -24 -22 0
-490 485 0
-490 22 0
-490 21 -24 0
-490 -21 24 0
490 -485 21 24 -22 0
490 -485 -21 -24 -22 0
491 488 -19 0
491 -488 19 0
-491 488 19 0
-491 -488 -19 0
492 22 -20 0
492 -22 20 0
-492 22 20 0
-492 -22 -20 0
-493 488 0
-493 20 0
-493 19 -22 0
-493 -19 22 0
493 -488 19 22 -20 0
493 -488 -19 -22 -20 0
494 491 -17 0
494 -491 17 0
-494 491 17 0
-494 -491 -17 0
495 20 -18 0
495 -20 18 0
-495 20 18 0
-495 -20 -18 0
-496 491 0
-496 18 0
-496 17 -20 0
-496 -17 20 0
496 -491 17 20 -18 0
496 -491 -17 -20 -18 0
497 494 -15 0
497 -494 15 0
-497 494 15 0
-497 -494 -15 0
498 18 -16 0
498 -18 16 0
-498 18 16 0
-498 -18 -16 0
-499 494 0
-499 16 0
-499 15 -18 0
-499 -15 18 0
499 -494 15 18 -16 0
499 -494 -15 -18 -16 0
500 497 -13 0
500 -497 13 0
-500 497 13 0
-500 -497 -13 0
501 16 -14 0
501 -16 14 0
-501 16 14 0
-501 -16 -14 0
-502 497 0
-502 14 0
-502 13 -16 0
-502 -13 16 0
502 -497 13 16 -14 0
502 -497 -13 -16 -14 0
503 500 -11 0
503 -500 11 0
-503 500 11 0
-503 -500 -11 0
504 14 -12 0
504 -14 12 0
-504 14 12 0
-504 -14 -12 0
-505 500 0
-505 12 0
-505 11 -14 0
-505 -11 14 0
505 -500 11 14 -12 0
505 -500 -11 -14 -12 0
506 503 -9 0
506 -503 9 0
-506 503 9 0
-506 -503 -9 0
507 12 -10 0
507 -12 10 0
-507 12 10 0
-507 -12 -10 0
-508 503 0
-508 10 0
-508 9 -12 0
-508 -9 12 0
508 -503 9 12 -10 0
508 -503 -9 -12 -10 0
509 506 -7 0
509 -506 7 0
-509 506 7 0
-509 -506 -7 0
510 10 -8 0
510 -10 8 0
-510 10 8 0
-510 -10 -8 0
-511 506 0
-511 8 0
-511 7 -10 0
-511 -7 10 0
511 -506 7 10 -8 0
511 -506 -7 -10 -8 0
512 509 -5 0
512 -509 5 0
-512 509 5 0
-512 -509 -5 0
513 8 -6 0
513 -8 6 0
-513 8 6 0
-513 -8 -6 0
-514 509 0
-514 6 0
-514 5 -8 0
-514 -5 8 0
514 -509 5 8 -6 0
514 -509 -5 -8 -6 0
515 512 -3 0
515 -512 3 0
-515 512 3 0
-515 -512 -3 0
516 6 -4 0
516 -6 4 0
-516 6 4 0
-516 -6 -4 0
-517 512 0
-517 4 0
-517 3 -6 0
-517 -3 6 0
517 -512 3 6 -4 0
517 -512 -3 -6 -4 0
518 515 -1 0
518 -515 1 0
-518 515 1 0
-518 -515 -1 0
519 4 -2 0
519 -4 2 0
-519 4 2 0
-519 -4 -2 0
-520 515 0
-520 2 0
-520 1 -4 0
-520 -1 4 0
520 -515 1 4 -2 0
520 -515 -1 -4 -2 0
-518 0
-515 0
-519 0
-512 0
-516 0
-509 0
-513 0
-506 0
-510 0
-503 0
-507 0
-500 0
-504 0
-497 0
-501 0
-494 0
-498 0
-491 0
-495 0
-488 0
-492 0
-485 0
-489 0
-482 0
-486 0
-479 0
-483 0
-476 0
-480 0
-473 0
-477 0
-470 0
-474 0
-467 0
-471 0
-464 0
-468 0
-461 0
-465 0
-458 0
-462 0
-455 0
-459 0
-452 0
-456 0
-449 0
-453 0
-446 0
-450 0
-443 0
-447 0
-440 0
-444 0
-437 0
-441 0
-434 0
-438 0
-431 0
-435 0
-428 0
-432 0
-425 0
-429 0
-422 0
-426 0
-419 0
-423 0
-416 0
-420 0
-413 0
-417 0
-410 0
-414 0
-407 0
-411 0
-404 0
-408 0
-401 0
-405 0
-398 0
-402 0
-395 0
-399 0
-392 0
-396 0
-389 0
-393 0
-386 0
-390 0
-383 0
-387 0
-380 0
-384 0
-377 0
-381 0
-374 0
-378 0
-371 0
-375 0
-368 0
-372 0
-365 0
-369 0
-362 0
-366 0
-359 0
-363 0
-356 0
-360 0
-353 0
-357 0
-350 0
-354 0
-347 0
-351 0
-344 0
-348 0
-341 0
-345 0
-338 0
-342 0
-335 0
-339 0
-332 0
-336 0
-329 0
-333 0
-326 0
-330 0
-323 0
-327 0
-320 0
-324 0
-317 0
-321 0
-314 0
-318 0
-311 0
-315 0
-308 0
-312 0
-305 0
-309 0
-302 0
-306 0
-299 0
-303 0
-296 0
-300 0
-293 0
-297 0
-290 0
-294 0
-287 0
-291 0
-284 0
-288 0
-281 0
-285 0
-278 0
-282 0
-275 0
-279 0
-272 0
-276 0
-269 0
-273 0
-266 0
-270 0
-263 0
-267 0
-260 0
-264 0
-257 0
-261 0
-254 0
-258 0
-251 0
-255 0
-248 0
-252 0
-245 0
-249 0
-242 0
-246 0
-239 0
-243 0
-236 0
-240 0
-233 0
-237 0
-230 0
-234 0
-227 0
-231 0
-224 0
-228 0
-221 0
-225 0
-218 0
-222 0
-215 0
-219 0
-209 0
-216 0
